8 8 1 1 111111
15 2 8 2 2 3 2 8 5 5 7 2 3 3 7 3 2 8 7 3 2 1 7 2 1 3 2 2 1 3 5 3 1 1 1 2 1 1 5 3 1 1 7 1 6 3 2 8 5 2 6 2 8 5 5 1 2 8 7 6 5 1 6 6 
15 2 8 1 4 3 2 4 7 5 1 1 1 7 1 6 6 1 5 4 1 1 4 2 1 4 3 6 2 2 4 5 3 2 4 2 6 4 2 2 5 5 7 1 6 1 1 3 7 2 1 1 7 6 2 8 5 5 2 2 1 1 2 3 
15 1 1 5 1 2 5 1 2 2 2 1 4 4 6 1 2 4 1 7 7 2 2 4 5 6 2 8 1 1 6 1 2 1 1 2 7 2 5 1 7 5 2 8 5 7 7 2 3 7 7 5 1 3 3 1 2 2 
15 2 8 7 4 4 2 8 5 1 5 2 1 1 4 5 2 3 4 6 2 1 5 5 2 3 2 5 2 1 5 7 2 5 2 6 2 2 3 6 6 3 2 5 5 6 2 2 8 2 7 4 2 8 6 4 4 1 2 1 2 2 7 7 4 1 8 5 
15 2 4 4 7 3 2 8 4 2 3 2 4 7 6 6 1 6 2 1 5 3 1 2 1 2 1 4 4 4 1 3 4 2 8 3 4 7 2 2 6 7 2 2 4 5 7 2 1 3 3 2 1 5 4 7 1 2 2 2 3 7 7 6 
15 1 6 1 2 1 2 2 7 1 6 1 2 3 5 6 3 2 2 6 6 4 2 2 7 7 3 2 2 1 4 3 2 8 3 1 6 2 2 4 3 2 2 1 7 4 6 2 1 1 5 5 2 8 7 7 6 2 8 6 1 6 2 8 3 1 7 2 2 6 5 6 
15 1 1 3 1 5 4 2 2 1 3 7 1 6 3 2 2 2 6 6 1 4 3 1 6 5 2 1 7 3 3 2 8 7 4 4 2 8 6 4 4 2 6 3 7 2 1 2 2 2 5 3 7 6 2 8 6 5 6 1 2 5 
15 1 1 6 1 8 5 2 3 6 7 6 2 3 7 6 1 2 2 5 7 5 2 5 5 6 6 1 2 5 2 8 3 1 4 1 2 6 2 1 3 3 4 2 4 6 6 5 2 8 2 6 2 1 1 4 1 4 3 2 8 3 1 2 
0 3 2 4 8 
0 3 2 4 8 
2 0 1 3 3 5 9 
1 2 3 6 11 13 
2 0 1 3 5 6 9 
2 2 4 3 7 11 13 
2 4 3 1 7 
2 5 6 2 12 14 
2 1 0 3 9 12 14 
3 2 4 8 1 11 
0 3 12 13 14 
3 3 9 5 0 
3 7 10 8 0 
3 5 10 3 0 
3 8 7 10 0 
0 3 18 19 20 
0 3 18 19 20 
0 3 18 19 20 
3 16 15 17 2 21 22 
3 17 15 16 2 21 22 
3 16 15 17 2 21 23 
3 19 18 20 3 24 25 26 
2 18 19 3 24 25 26 
1 20 3 24 25 26 
3 23 22 21 3 27 28 29 
3 21 23 22 2 27 29 
3 21 22 23 2 27 28 
3 25 26 24 0 
2 24 26 0 
2 24 25 0 
0 3 32 33 35 
0 3 32 33 35 
2 31 30 3 34 36 38 
2 31 30 3 34 36 38 
2 33 32 2 39 40 
2 30 31 3 36 38 40 
3 33 35 32 3 39 43 44 
0 3 39 40 42 
3 33 32 35 3 41 42 43 
3 34 37 36 1 41 
3 35 34 37 3 41 43 44 
3 39 40 38 0 
2 37 38 1 44 
3 36 40 38 0 
3 42 40 36 0 
0 1 46 
1 45 2 47 48 
1 46 3 49 50 54 
1 46 3 49 50 54 
2 47 48 3 51 52 53 
2 48 47 3 51 52 53 
2 49 50 3 55 56 59 
2 50 49 3 55 56 59 
2 49 50 2 55 57 
2 48 47 2 56 59 
3 53 51 52 1 58 
3 51 52 54 2 57 58 
2 56 53 0 
2 56 55 0 
3 54 52 51 0 
0 2 61 63 
1 60 3 62 64 70 
1 61 3 65 66 67 
1 60 2 64 70 
2 61 63 3 65 66 67 
2 64 62 2 68 72 
2 64 62 2 68 74 
2 62 64 3 68 72 74 
3 67 66 65 1 71 
0 2 70 71 
3 61 63 69 3 72 74 73 
2 68 69 0 
3 67 70 65 0 
1 70 0 
3 67 70 66 0 
0 3 77 79 81 
0 3 77 79 81 
2 75 76 3 78 83 86 
1 77 3 82 85 89 
2 75 76 3 82 83 86 
0 2 81 83 
3 76 75 80 3 82 85 86 
3 78 81 79 2 87 88 
3 80 79 77 3 84 85 89 
1 83 0 
3 83 81 78 2 87 88 
3 81 79 77 3 87 88 89 
3 82 85 86 0 
3 82 85 86 0 
3 83 78 86 0 
0 2 91 93 
1 90 3 94 95 101 
0 3 93 94 95 
2 90 92 3 96 97 98 
2 91 92 3 96 97 98 
2 91 92 3 96 97 98 
3 95 94 93 1 100 
3 95 94 93 1 102 
3 95 93 94 2 100 102 
0 2 100 101 
3 98 96 99 1 103 
2 91 99 1 102 
3 101 97 98 1 103 
2 100 102 1 104 
1 103 0 
0 3 106 109 113 
1 105 3 107 108 116 
1 106 3 111 112 114 
1 106 3 111 112 114 
1 105 3 111 112 116 
0 2 113 116 
3 108 107 109 3 115 118 119 
3 109 108 107 3 115 117 118 
2 105 110 1 114 
3 107 108 113 3 115 117 118 
3 111 112 114 0 
3 110 106 109 1 117 
3 114 112 116 1 119 
3 112 114 111 0 
2 117 111 0 
